c uprop, v00.0, 
c reading from data/prog360.c.cnf
c done reading: 0.002012
p cnf 107 412
-59 -72 0
59 72 0
-65 -81 0
65 81 0
-69 -71 0
69 71 0
-74 -77 0
74 77 0
-67 -79 0
67 79 0
-76 -82 0
76 82 0
-56 -62 0
56 62 0
-55 59 0
55 -59 0
-54 -59 0
54 59 0
53 -59 -65 0
53 -55 -65 0
53 -55 -59 0
-53 59 65 0
-53 55 65 0
-53 55 59 0
-52 -53 65 0
-52 -53 59 0
-52 -53 55 0
52 53 -65 0
52 53 -59 0
52 53 -55 0
52 -55 -59 -65 0
-52 55 59 65 0
51 -65 -69 0
51 -53 -69 0
51 -53 -65 0
-51 65 69 0
-51 53 69 0
-51 53 65 0
-50 -51 69 0
-50 -51 65 0
-50 -51 53 0
50 51 -69 0
50 51 -65 0
50 51 -53 0
50 -53 -65 -69 0
-50 53 65 69 0
49 -69 -74 0
49 -51 -74 0
49 -51 -69 0
-49 69 74 0
-49 51 74 0
-49 51 69 0
-48 -49 74 0
-48 -49 69 0
-48 -49 51 0
48 49 -74 0
48 49 -69 0
48 49 -51 0
48 -51 -69 -74 0
-48 51 69 74 0
47 -74 -79 0
47 -49 -79 0
47 -49 -74 0
-47 74 79 0
-47 49 79 0
-47 49 74 0
-46 -47 79 0
-46 -47 74 0
-46 -47 49 0
46 47 -79 0
46 47 -74 0
46 47 -49 0
46 -49 -74 -79 0
-46 49 74 79 0
45 -79 -82 0
45 -47 -82 0
45 -47 -79 0
-45 79 82 0
-45 47 82 0
-45 47 79 0
-44 -45 82 0
-44 -45 79 0
-44 -45 47 0
44 45 -82 0
44 45 -79 0
44 45 -47 0
44 -47 -79 -82 0
-44 47 79 82 0
43 -62 -82 0
43 -45 -62 0
43 -45 -82 0
-43 62 82 0
-43 45 62 0
-43 45 82 0
-43 -57 62 0
-43 -57 82 0
-43 45 -57 0
43 57 -62 0
43 57 -82 0
43 -45 57 0
-45 57 -62 -82 0
45 -57 62 82 0
-60 62 0
43 -60 0
-43 60 -62 0
-43 -62 -66 0
43 62 -66 0
43 -62 66 0
-43 62 66 0
46 -70 0
-46 70 0
-46 -75 0
46 75 0
-44 -59 80 0
-44 -70 80 0
-59 -70 80 0
44 59 -80 0
44 70 -80 0
59 70 -80 0
44 -80 -83 0
59 -80 -83 0
70 -80 -83 0
-44 80 83 0
-59 80 83 0
-70 80 83 0
-44 -59 -70 83 0
44 59 70 -83 0
-57 63 -65 0
-57 63 -80 0
63 -65 -80 0
57 -63 65 0
57 -63 80 0
-63 65 80 0
57 -63 -84 0
-63 65 -84 0
-63 80 -84 0
-57 63 84 0
63 -65 84 0
63 -80 84 0
-57 -65 -80 84 0
57 65 80 -84 0
-66 -69 85 0
-63 -66 85 0
-63 -69 85 0
66 69 -85 0
63 66 -85 0
63 69 -85 0
66 -85 -86 0
69 -85 -86 0
63 -85 -86 0
-66 85 86 0
-69 85 86 0
-63 85 86 0
-63 -66 -69 86 0
63 66 69 -86 0
-60 -74 87 0
-60 -85 87 0
-74 -85 87 0
60 74 -87 0
60 85 -87 0
74 85 -87 0
60 -87 -88 0
74 -87 -88 0
85 -87 -88 0
-60 87 88 0
-74 87 88 0
-85 87 88 0
-60 -74 -85 88 0
60 74 85 -88 0
79 -89 0
87 -89 0
-79 -87 89 0
-79 -87 -90 0
79 87 -90 0
-79 87 90 0
79 -87 90 0
82 -91 0
89 -91 0
-82 -89 91 0
-82 -89 -92 0
82 89 -92 0
-82 89 92 0
82 -89 92 0
62 -93 0
91 -93 0
-62 -91 93 0
-62 -91 -94 0
62 91 -94 0
-62 91 94 0
62 -91 94 0
-54 -95 0
54 95 0
-52 -96 0
52 96 0
-50 -97 0
50 97 0
-48 -98 0
48 98 0
-75 -99 0
75 99 0
-83 -100 0
83 100 0
-84 -101 0
84 101 0
-86 -102 0
86 102 0
-88 -103 0
88 103 0
-90 -104 0
90 104 0
-92 -105 0
92 105 0
-94 -106 0
94 106 0
-93 -107 0
93 107 0
-41 -42 0
-40 -41 0
40 41 42 0
-38 40 42 0
-38 -40 -42 0
38 40 -42 0
38 -40 42 0
-37 41 0
-36 -37 0
36 37 -41 0
-35 36 -41 0
-35 -36 41 0
35 36 41 0
35 -36 -41 0
-34 37 0
-33 -34 0
33 34 -37 0
-31 33 -37 0
-31 -33 37 0
31 33 37 0
31 -33 -37 0
-30 34 0
-29 -30 0
29 30 -34 0
-28 29 -34 0
-28 -29 34 0
28 29 34 0
28 -29 -34 0
-27 30 0
-26 -27 0
26 27 -30 0
-24 26 -30 0
-24 -26 30 0
24 26 30 0
24 -26 -30 0
-23 27 0
-22 -23 0
22 23 -27 0
-21 22 -27 0
-21 -22 27 0
21 22 27 0
21 -22 -27 0
-20 23 0
-19 -20 0
19 20 -23 0
-17 19 -23 0
-17 -19 23 0
17 19 23 0
17 -19 -23 0
-16 -42 0
-16 -40 0
16 40 42 0
-15 40 42 0
-15 -40 -42 0
15 40 -42 0
15 -40 42 0
-14 16 0
-14 -36 0
14 -16 36 0
-13 -16 36 0
-13 16 -36 0
13 16 36 0
13 -16 -36 0
-12 14 0
-12 -33 0
12 -14 33 0
-11 -14 33 0
-11 14 -33 0
11 14 33 0
11 -14 -33 0
-10 12 0
-10 -29 0
10 -12 29 0
-9 -12 29 0
-9 12 -29 0
9 12 29 0
9 -12 -29 0
-8 10 0
-8 -26 0
8 -10 26 0
-7 -10 26 0
-7 10 -26 0
7 10 26 0
7 -10 -26 0
8 -58 0
-22 -58 0
-8 22 58 0
-8 22 -64 0
8 -22 -64 0
8 22 64 0
-8 -22 64 0
58 -68 0
-19 -68 0
19 -58 68 0
19 -58 -73 0
-19 58 -73 0
19 58 73 0
-19 -58 73 0
54 -78 0
42 -78 0
-42 -54 78 0
42 -54 0
-42 54 0
-40 -52 61 0
-52 61 -78 0
-40 61 -78 0
40 52 -61 0
52 -61 78 0
40 -61 78 0
-52 61 0
-40 61 0
61 -78 0
-40 -52 -78 0
-36 39 -50 0
39 -50 -61 0
-36 39 -61 0
36 -39 50 0
-39 50 61 0
36 -39 61 0
39 -50 0
-36 39 0
39 -61 0
-36 -50 -61 0
32 -33 -48 0
32 -39 -48 0
32 -33 -39 0
-32 33 48 0
-32 39 48 0
-32 33 39 0
32 -48 0
32 -33 0
32 -39 0
-33 -39 -48 0
25 -29 -75 0
25 -32 -75 0
25 -29 -32 0
-25 29 75 0
-25 32 75 0
-25 29 32 0
-25 75 0
-25 29 0
-25 32 0
29 32 75 0
18 -26 -83 0
18 -25 -83 0
18 -25 -26 0
-18 26 83 0
-18 25 83 0
-18 25 26 0
18 -83 0
18 -26 0
18 -25 0
-25 -26 -83 0
6 -22 -84 0
6 -18 -84 0
6 -18 -22 0
-6 22 84 0
-6 18 84 0
-6 18 22 0
6 -84 0
6 -22 0
6 -18 0
-18 -22 -84 0
5 -19 -86 0
5 -6 -86 0
5 -6 -19 0
-5 19 86 0
-5 6 86 0
-5 6 19 0
5 -86 0
5 -19 0
5 -6 0
-6 -19 -86 0
-4 88 0
-4 5 0
4 -5 -88 0
5 -88 0
-5 88 0
-3 90 0
-3 4 0
3 -4 -90 0
4 -90 0
-4 90 0
-2 92 0
-2 3 0
2 -3 -92 0
3 -92 0
-3 92 0
-1 94 0
-1 2 0
1 -2 -94 0
2 -94 0
-2 94 0
-1 -93 0
1 -93 0
-1 93 0
